
******************************************************************************
This program contains Ipopt, a library for large-scale nonlinear optimization.
 Ipopt is released as open source code under the Eclipse Public License (EPL).
         For more information visit http://projects.coin-or.org/Ipopt
******************************************************************************

This is Ipopt version 3.12.6, running with linear solver ma57.

Number of nonzeros in equality constraint Jacobian...:    17493
Number of nonzeros in inequality constraint Jacobian.:        0
Number of nonzeros in Lagrangian Hessian.............:    14995

Total number of variables............................:     9997
                     variables with only lower bounds:        0
                variables with lower and upper bounds:        0
                     variables with only upper bounds:        0
Total number of equality constraints.................:     7497
Total number of inequality constraints...............:        0
        inequality constraints with only lower bounds:        0
   inequality constraints with lower and upper bounds:        0
        inequality constraints with only upper bounds:        0

iter    objective    inf_pr   inf_du lg(mu)  ||d||  lg(rg) alpha_du alpha_pr  ls
   0  5.6227500e+04 7.25e+00 3.53e+01  -1.0 0.00e+00    -  0.00e+00 0.00e+00   0
   1  8.0854883e+05 3.08e+01 6.82e+03  -1.0 5.55e+00    -  1.00e+00 1.00e+00h  1
   2  3.5382785e+04 6.03e+01 2.67e+05  -1.0 7.77e+00    -  1.00e+00 1.00e+00f  1
   3  3.2107560e+04 5.29e+01 2.35e+05  -1.0 7.08e+01    -  1.00e+00 1.25e-01f  4
   4  2.7449125e+04 5.25e+01 2.56e+06  -1.0 5.19e+02    -  1.00e+00 7.81e-03f  8
   5  2.3549468e+04 4.62e+01 2.25e+06  -1.0 2.95e+01    -  1.00e+00 1.25e-01f  4
   6  3.2582603e+04 1.08e+02 2.72e+07  -1.0 1.04e+01    -  1.00e+00 1.00e+00h  1
   7  1.8015818e+04 9.03e+01 1.83e+07  -1.0 1.89e+01   2.0 1.00e+00 5.00e-01f  2
   8  1.7832771e+04 8.96e+01 1.82e+07  -1.0 5.94e+02    -  1.00e+00 7.81e-03f  8
   9  1.7880372e+04 8.93e+01 1.81e+07  -1.0 5.05e+02    -  1.00e+00 3.91e-03h  9
iter    objective    inf_pr   inf_du lg(mu)  ||d||  lg(rg) alpha_du alpha_pr  ls
  10  1.7911319e+04 8.89e+01 1.80e+07  -1.0 1.15e+03    -  1.00e+00 3.91e-03h  9
  11  1.7862410e+04 8.89e+01 2.41e+07  -1.0 2.49e+03    -  1.00e+00 4.88e-04f 12
  12  1.7867914e+04 8.89e+01 7.12e+07  -1.0 4.14e+03    -  1.00e+00 2.44e-04h 13
  13  1.7884805e+04 8.88e+01 2.14e+08  -1.0 3.14e+03    -  1.00e+00 4.88e-04h 12
  14  1.7892152e+04 8.88e+01 3.15e+08  -1.0 3.94e+03    -  1.00e+00 2.44e-04h 13
  15  1.7906504e+04 8.88e+01 1.01e+09  -1.0 4.10e+03    -  1.00e+00 2.44e-04h 13
  16  1.7928063e+04 8.87e+01 1.01e+09  -1.0 2.76e+03    -  1.00e+00 4.88e-04h 12
  17  1.9513987e+16 1.40e+08 3.99e+18  -1.0 1.18e+04    -  1.00e+00 1.00e+00w  1
Reallocating memory for MA57: lfact (167610)
  18  1.7143957e+17 3.23e+09 9.96e+17  -1.0 5.68e+04    -  1.00e+00 1.00e+00w  1
  19  1.0692059e+16 8.07e+08 6.37e+25  -1.0 1.46e+05    -  1.00e+00 1.00e+00w  1
Reallocating memory for MA57: lfact (188066)
Reallocating memory for MA57: lfact (199332)
WARNING: Problem in step computation; switching to emergency mode.
Reallocating memory for MA57: lfact (229981)
iter    objective    inf_pr   inf_du lg(mu)  ||d||  lg(rg) alpha_du alpha_pr  ls
  20r 1.7928063e+04 8.87e+01 9.99e+02   1.9 0.00e+00    -  0.00e+00 4.77e-07R 22
  21r 1.3552985e+04 2.77e+01 9.84e+02   1.9 7.02e+04    -  5.32e-01 1.25e-03f  1
  22r 1.3552985e+04 2.77e+01 9.99e+02   1.4 0.00e+00    -  0.00e+00 4.77e-07R 22
  23r 1.2884019e+04 1.24e+01 9.96e+02   1.4 1.93e+04    -  5.43e-01 1.42e-03f  1
  24r 1.2884019e+04 1.24e+01 9.99e+02   1.1 0.00e+00    -  0.00e+00 4.77e-07R 22
  25r 1.0532835e+04 6.12e+00 9.98e+02   1.1 3.70e+03    -  2.34e-01 1.80e-03f  1
  26  1.0518633e+04 6.23e+00 2.92e+06  -1.0 2.68e+06    -  1.00e+00 4.77e-07f 22
  27r 1.0518633e+04 6.23e+00 9.99e+02   0.8 0.00e+00    -  0.00e+00 4.77e-07R 22
  28r 1.0440183e+04 4.99e+00 9.98e+02   0.8 2.20e+03    -  1.05e-01 2.32e-03f  1
  29  1.0440157e+04 4.99e+00 5.40e+03  -1.0 8.80e+03    -  1.00e+00 6.10e-05f 15
iter    objective    inf_pr   inf_du lg(mu)  ||d||  lg(rg) alpha_du alpha_pr  ls
  30  1.0439468e+04 4.99e+00 5.40e+03  -1.0 2.77e+03    -  1.00e+00 2.44e-04f 13
  31  1.0402665e+04 7.75e+00 4.37e+05  -1.0 3.69e+03    -  1.00e+00 4.88e-04f 12
  32  1.0483539e+04 7.73e+00 4.37e+05  -1.0 7.51e+02    -  1.00e+00 1.95e-03h 10
  33r 1.0483539e+04 7.73e+00 9.99e+02   0.9 0.00e+00    -  0.00e+00 4.77e-07R 22
  34r 1.0880977e+04 4.90e+00 9.98e+02   0.9 4.03e+03    -  1.14e-01 1.90e-03f  1
  35r 1.0880977e+04 4.90e+00 9.99e+02   0.7 0.00e+00    -  0.00e+00 4.77e-07R 22
  36r 1.1284136e+04 5.17e+00 9.95e+02   0.7 4.92e+02    -  2.62e-02 4.35e-03f  1
  37r 1.0936692e+04 4.50e+00 9.89e+02   0.7 2.51e+02    -  1.13e-01 5.93e-03f  1
  38r 9.6687694e+03 4.40e+00 8.89e+02   0.7 2.67e+00   2.0 4.52e-01 1.45e-01f  1
  39  9.6683545e+03 4.75e+00 2.31e+05  -1.0 3.40e+05    -  1.00e+00 1.91e-06f 20
iter    objective    inf_pr   inf_du lg(mu)  ||d||  lg(rg) alpha_du alpha_pr  ls
  40  9.6498733e+03 1.45e+01 1.03e+06  -1.0 3.08e+04    -  1.00e+00 1.22e-04f 14
  41  9.6415857e+03 1.45e+01 1.03e+06  -1.0 4.60e+03    -  1.00e+00 2.44e-04f 13
  42r 9.6415857e+03 1.45e+01 9.99e+02   1.2 0.00e+00    -  0.00e+00 4.77e-07R 22
  43r 9.6317294e+03 5.27e+00 9.98e+02   1.2 1.15e+04    -  1.54e-01 1.25e-03f  1
  44r 9.6317294e+03 5.27e+00 9.99e+02   0.7 0.00e+00    -  0.00e+00 4.77e-07R 22
  45r 9.6131625e+03 4.40e+00 9.98e+02   0.7 2.19e+03    -  4.90e-02 1.73e-03f  1
  46r 9.6131625e+03 4.40e+00 9.99e+02   0.6 0.00e+00    -  0.00e+00 4.77e-07R 22
  47r 9.4137388e+03 4.75e+00 9.95e+02   0.6 2.68e+02    -  3.75e-02 4.65e-03f  1
  48r 9.0728968e+03 8.13e+00 9.67e+02   0.6 1.09e+02   0.0 2.88e-01 2.93e-02f  1
  49r 8.7260123e+03 6.19e+00 9.23e+02   0.6 4.54e+00   2.2 3.05e-01 1.98e-01f  1
iter    objective    inf_pr   inf_du lg(mu)  ||d||  lg(rg) alpha_du alpha_pr  ls
  50r 8.5766002e+03 4.96e+00 9.00e+02   0.6 2.54e+00   2.7 2.96e-02 2.56e-01f  1
  51r 8.4612928e+03 4.37e+00 1.34e+03   0.6 3.30e+00   3.1 1.07e-02 2.39e-01f  1
  52r 8.1204479e+03 4.33e+00 2.60e+03   0.6 3.90e+00   2.6 2.75e-02 3.98e-01f  1
  53r 7.6831180e+03 4.20e+00 3.58e+03   0.6 1.07e+00   3.0 9.38e-02 6.30e-01f  1
  54r 7.6103481e+03 4.16e+00 2.79e+03   0.6 5.29e-01   3.5 5.98e-01 2.85e-01f  1
  55r 7.4637019e+03 4.04e+00 2.51e+03   0.6 6.69e+00   3.0 2.09e-01 1.82e-01f  1
  56r 7.4583136e+03 4.04e+00 3.08e+03   0.6 5.24e-01   3.4 7.24e-01 1.94e-02f  1
  57r 7.4015080e+03 3.99e+00 2.90e+03   0.6 4.79e+00   2.9 1.03e-02 5.85e-02f  1
  58r 7.3885603e+03 3.98e+00 2.85e+03   0.6 5.78e-01   3.4 2.02e-01 4.15e-02f  1
  59r 7.2398170e+03 3.85e+00 2.47e+03   0.6 6.38e+00   2.9 1.00e-02 1.31e-01f  1
iter    objective    inf_pr   inf_du lg(mu)  ||d||  lg(rg) alpha_du alpha_pr  ls
  60  7.2391226e+03 3.85e+00 1.20e+08  -1.0 1.62e+07    -  1.00e+00 1.19e-07f 24
  61  7.2436690e+03 3.85e+00 1.20e+08  -1.0 1.09e+02   4.0 1.00e+00 2.44e-04h 13
  62  7.2436556e+03 3.85e+00 1.28e+09  -1.0 1.36e+06    -  1.00e+00 2.38e-07f 23
  63r 7.2436556e+03 3.85e+00 9.99e+02   0.6 0.00e+00    -  0.00e+00 4.77e-07R 22
  64r 6.9638365e+03 3.74e+00 9.98e+02   0.6 2.92e+03    -  5.16e-03 1.28e-03f  1
  65r 6.2015208e+03 2.73e+00 9.94e+02   0.6 3.43e+02   0.0 4.11e-03 5.15e-03f  1
  66r 6.2015208e+03 2.73e+00 9.99e+02   0.4 0.00e+00    -  0.00e+00 4.77e-07R 22
  67r 6.1852671e+03 2.14e+00 9.96e+02   0.4 4.55e+02    -  8.26e-03 2.73e-03f  1
  68r 6.1852671e+03 2.14e+00 9.99e+02   0.3 0.00e+00    -  0.00e+00 4.77e-07R 22
  69r 6.1672604e+03 1.91e+00 9.97e+02   0.3 4.57e+02    -  1.79e-02 2.46e-03f  1
iter    objective    inf_pr   inf_du lg(mu)  ||d||  lg(rg) alpha_du alpha_pr  ls
  70r 6.1672604e+03 1.91e+00 9.99e+02   0.3 0.00e+00    -  0.00e+00 4.77e-07R 22
  71r 6.1269674e+03 1.55e+00 9.97e+02   0.3 7.33e+02    -  9.37e-03 2.25e-03f  1
  72  6.1202065e+03 1.57e+00 9.28e+02  -1.0 4.75e+03    -  1.00e+00 6.10e-05f 15
  73  6.1534262e+03 1.59e+00 4.92e+04  -1.0 1.03e+02   3.5 1.00e+00 3.91e-03h  9
  74  7.1482348e+03 6.77e+00 1.30e+07  -1.0 1.04e+01   5.3 1.00e+00 2.50e-01h  3
  75  7.1003337e+03 6.76e+00 1.08e+09  -1.0 5.87e+03    -  1.00e+00 2.44e-04f 13
  76  7.0386826e+03 6.75e+00 1.07e+09  -1.0 7.36e+01    -  1.00e+00 1.95e-03f 10
  77  7.0357519e+03 6.72e+00 1.07e+09  -1.0 2.15e+01    -  1.00e+00 3.91e-03f  9
  78  7.1010057e+03 6.67e+00 1.06e+09  -1.0 1.27e+01    -  1.00e+00 7.81e-03h  8
  79  7.6779853e+03 6.47e+00 1.03e+09  -1.0 9.15e+00    -  1.00e+00 3.12e-02h  6
iter    objective    inf_pr   inf_du lg(mu)  ||d||  lg(rg) alpha_du alpha_pr  ls
  80  1.0479618e+04 5.71e+00 8.98e+08  -1.0 1.40e+01    -  1.00e+00 1.25e-01h  4
  81  3.0091255e+04 1.32e+02 2.30e+09  -1.0 1.15e+01    -  1.00e+00 1.00e+00h  1
  82  3.0479650e+04 1.24e+02 7.74e+09  -1.0 1.28e+02    -  1.00e+00 6.25e-02h  5
  83  3.0095005e+04 1.22e+02 9.03e+09  -1.0 2.34e+02   7.5 1.00e+00 1.56e-02f  7
  84  3.2997282e+04 1.14e+02 1.77e+11  -1.0 8.89e+01   8.8 1.00e+00 6.25e-02h  5
  85  1.9659004e+04 2.91e+01 2.23e+13  -1.0 5.40e+00  10.2 1.00e+00 1.00e+00f  1
  86  1.9394679e+04 2.82e+01 4.89e+14  -1.0 1.15e+02    -  1.00e+00 3.12e-02f  6
  87  2.1036703e+04 2.18e+01 2.50e+15  -1.0 1.19e+01    -  1.00e+00 2.50e-01h  3
  88  1.5884869e+04 1.15e+01 6.25e+14  -1.0 3.38e+00  12.4 1.00e+00 1.00e+00f  1
  89  1.5496416e+04 1.26e+01 1.64e+14  -1.0 3.55e+00  11.9 1.00e+00 1.00e+00f  1
iter    objective    inf_pr   inf_du lg(mu)  ||d||  lg(rg) alpha_du alpha_pr  ls
  90  1.5492867e+04 1.26e+01 1.57e+14  -1.0 1.79e+02  13.3 1.00e+00 3.91e-03f  9
  91  1.5446885e+04 1.10e+01 4.55e+16  -1.0 2.32e+01  14.6 1.00e+00 1.25e-01f  4
  92  1.5447277e+04 1.10e+01 4.53e+16  -1.0 6.04e+01  15.0 1.00e+00 3.91e-03h  9
  93  1.5399979e+04 1.03e+01 4.58e+16  -1.0 2.10e+01  15.4 1.00e+00 6.25e-02f  5
  94  1.5448085e+04 1.02e+01 4.65e+16  -1.0 7.24e+01  15.9 1.00e+00 1.56e-02h  7
  95  1.5365923e+04 1.23e+01 2.03e+18  -1.0 4.21e+01  15.4 1.00e+00 6.25e-02f  5
  96  1.5376036e+04 1.19e+01 1.96e+18  -1.0 1.45e+01  15.8 1.00e+00 3.12e-02h  6
  97  2.3810107e+04 1.43e+01 1.72e+18  -1.0 3.72e+01  15.3 1.00e+00 1.25e-01h  4
  98  1.7230980e+04 1.56e+01 8.06e+18  -1.0 8.84e+00  16.7 1.00e+00 2.50e-01f  3
  99  1.8585265e+04 1.20e+01 3.54e+19  -1.0 6.53e+00  17.1 1.00e+00 5.00e-01h  2
iter    objective    inf_pr   inf_du lg(mu)  ||d||  lg(rg) alpha_du alpha_pr  ls
 100  7.3622960e+04 1.82e+02 3.11e+20  -1.0 1.35e+01    -  1.00e+00 1.00e+00w  1
 101  2.0656605e+04 9.94e+01 4.00e+20  -1.0 9.97e+00    -  1.00e+00 1.00e+00w  1
 102  1.6241911e+04 4.70e+02 2.32e+23  -1.0 2.17e+01  19.3 1.00e+00 1.00e+00w  1
 103  1.5154893e+04 1.18e+02 5.80e+22  -1.0 1.09e+01  18.8 1.00e+00 1.00e+00f  1
WARNING: Problem in step computation; switching to emergency mode.
 104r 1.5154893e+04 1.18e+02 9.99e+02   2.1 0.00e+00  20.0 0.00e+00 0.00e+00R  1
 105r 1.4982321e+04 3.05e+01 9.87e+02   2.1 9.38e+04    -  4.67e-01 1.24e-03f  1
 106  1.6637052e+04 2.29e+01 1.07e+04  -1.0 9.36e+00    -  1.00e+00 5.00e-01h  2
 107  1.5646239e+04 1.49e+01 6.05e+03  -1.0 7.47e+00    -  1.00e+00 5.00e-01f  2
 108  1.5052390e+04 1.36e+01 1.49e+03  -1.0 3.68e+00    -  1.00e+00 1.00e+00f  1
 109  1.4850345e+04 1.44e+01 1.83e+03  -1.0 7.32e+00    -  1.00e+00 5.00e-01f  2
iter    objective    inf_pr   inf_du lg(mu)  ||d||  lg(rg) alpha_du alpha_pr  ls
 110  1.4628336e+04 1.15e+01 4.02e+03  -1.0 3.40e+00   2.0 1.00e+00 1.00e+00f  1
 111  1.4644802e+04 3.49e+00 1.04e+03  -1.0 1.87e+00    -  1.00e+00 1.00e+00h  1
 112  1.4604455e+04 1.24e+01 6.75e+05  -1.0 1.32e+01   3.3 1.00e+00 2.50e-01f  3
 113  1.4615780e+04 9.53e+00 1.16e+06  -1.0 7.46e+00   4.7 1.00e+00 2.50e-01h  3
 114  1.4611876e+04 8.38e+00 1.30e+06  -1.0 1.05e+01   4.2 1.00e+00 1.25e-01f  4
 115  1.4601713e+04 7.38e+00 5.32e+06  -1.0 9.04e+00   5.5 1.00e+00 1.25e-01f  4
 116  1.4578695e+04 4.04e+00 1.65e+07  -1.0 2.01e+00   5.9 1.00e+00 1.00e+00f  1
 117  1.4578868e+04 3.98e+00 1.62e+07  -1.0 2.36e+01    -  1.00e+00 1.56e-02h  7
 118  1.4596701e+04 3.65e+00 1.08e+08  -1.0 3.22e+00    -  1.00e+00 5.00e-01h  2
 119  1.4620369e+04 2.71e+00 2.53e+07  -1.0 1.65e+00    -  1.00e+00 1.00e+00h  1
iter    objective    inf_pr   inf_du lg(mu)  ||d||  lg(rg) alpha_du alpha_pr  ls
 120  1.4614914e+04 4.95e+00 2.30e+09  -1.0 7.41e+00    -  1.00e+00 2.50e-01f  3
 121  1.4621080e+04 4.64e+00 2.19e+09  -1.0 6.29e+00   9.1 1.00e+00 6.25e-02h  5
 122  1.4582501e+04 7.33e-01 1.88e+09  -1.0 8.56e-01   9.5 1.00e+00 1.00e+00f  1
 123  1.4582180e+04 6.87e-01 1.75e+09  -1.0 5.34e+00   9.0 1.00e+00 6.25e-02f  5
 124  1.4567325e+04 1.56e-01 1.22e+09  -1.0 4.03e-01   9.4 1.00e+00 1.00e+00f  1
 125  1.4566221e+04 2.18e-03 1.29e+08  -1.0 4.66e-02   9.0 1.00e+00 1.00e+00f  1
 126  1.4566213e+04 1.76e-07 1.94e+05  -1.0 6.26e-04   8.5 1.00e+00 1.00e+00h  1
 127  1.4566212e+04 6.34e-09 8.53e+00  -1.0 5.75e-03    -  1.00e+00 1.00e+00f  1
 128  1.4562257e+04 2.52e-01 4.42e+00  -1.0 5.02e-01    -  1.00e+00 1.00e+00f  1
 129  1.4560750e+04 5.62e-01 3.68e+00  -1.0 7.50e-01    -  1.00e+00 1.00e+00f  1
iter    objective    inf_pr   inf_du lg(mu)  ||d||  lg(rg) alpha_du alpha_pr  ls
 130  1.4560487e+04 6.74e-02 1.76e+07  -1.0 2.60e-01   8.0 1.00e+00 1.00e+00h  1
 131  1.4560431e+04 6.48e-04 1.47e+06  -1.0 2.55e-02   7.5 1.00e+00 1.00e+00h  1
 132  1.4560430e+04 3.68e-08 3.44e+03  -1.0 3.00e-04   7.1 1.00e+00 1.00e+00h  1
 133  1.4560428e+04 3.44e-06 1.98e+00  -1.0 2.67e-03    -  1.00e+00 1.00e+00f  1
 134  1.4559977e+04 3.13e-01 1.67e+00  -1.0 2.24e+00    -  1.00e+00 2.50e-01f  3
 135  1.4559772e+04 2.46e-02 1.63e-01  -1.0 1.70e-01    -  1.00e+00 1.00e+00h  1
 136  1.4559753e+04 7.98e-03 7.67e-03  -2.5 8.93e-02    -  1.00e+00 1.00e+00h  1
 137  1.4559750e+04 1.82e-05 5.94e-05  -3.8 4.26e-03    -  1.00e+00 1.00e+00h  1
 138  1.4559750e+04 1.28e-09 6.57e-09  -5.7 3.09e-04    -  1.00e+00 1.00e+00h  1

Number of Iterations....: 138

                                   (scaled)                 (unscaled)
Objective...............:   1.4559749539708804e+04    1.4559749539708804e+04
Dual infeasibility......:   6.5726458026160728e-09    6.5726458026160728e-09
Constraint violation....:   1.2815732919335687e-09    1.2815732919335687e-09
Complementarity.........:   0.0000000000000000e+00    0.0000000000000000e+00
Overall NLP error.......:   6.5726458026160728e-09    6.5726458026160728e-09


Number of objective function evaluations             = 817
Number of objective gradient evaluations             = 123
Number of equality constraint evaluations            = 939
Number of inequality constraint evaluations          = 0
Number of equality constraint Jacobian evaluations   = 153
Number of inequality constraint Jacobian evaluations = 0
Number of Lagrangian Hessian evaluations             = 138
Total CPU secs in IPOPT (w/o function evaluations)   =      2.070
Total CPU secs in NLP function evaluations           =      0.733

EXIT: Optimal Solution Found.
Note: The following floating-point exceptions are signalling: IEEE_UNDERFLOW_FLAG IEEE_DENORMAL

************************ CUTEst statistics ************************


 Package used            :  IPOPT
 Problem                 :  LUKVLE16  
 # variables             =            9997
 # constraints           =            7497
 # objective functions   =        0.9410000E+03
 # objective gradients   =        0.1240000E+03
 # objective Hessians    =        0.1250000E+03
 # Hessian-vector prdct  =        0.0000000E+00
 # constraints functions =        0.1094000E+04
 # constraints gradients =        0.1550000E+03
 # constraints Hessians  =        0.1250000E+03
 Exit code               =               0
 Final f                 =   0.1455975E+05
 Set up time             =            0.23 seconds
 Solve time              =            2.89 seconds


******************************************************************

System Time =       2.8289999962 s.
